1 3 100 546412.47
1 3 200 559491.50
1 3 300 568402.11
2 3 100 654664.58
2 3 200 655679.94
2 3 300 660920.23
3 3 100 645844.43
3 3 200 629526.73
3 3 300 657120.49
4 3 100 621123.41
4 3 200 659786.94
4 3 300 630306.95
5 3 100 636357.12
5 3 200 646978.83
5 3 300 645965.27
